# Solution for model count
# Objective value = 10
z#1 1
z#2 0
z#3 0
z#4 0
z#5 1
z#6 1
z#7 0
z#8 1
z#9 1
z#10 0
z#11 1
z#12 1
z#13 1
z#14 1
z#15 0
z#16 0
z#17 0
z#18 0
z#19 0
z#20 0
z#21 0
z#22 1
z#23 0
z#24 0
x#24 0
x#23 0
x#22 622
x#21 0
x#20 0
x#19 0
x#18 0
x#17 0
x#16 0
x#15 0
x#14 473
x#13 1066
x#12 542
x#11 516
x#10 0
x#9 479
x#8 242
x#7 0
x#6 3040
x#5 2078
x#4 0
x#3 0
x#2 0
x#1 942
